39073 39321 
38310 39756 
39325 39163 
39683 38864 
38435 39687 
39935 38706 
37429 40202 
38137 39838 
38531 39683 
38057 39885 
37627 40045 
38596 39642 
38122 39844 
36650 40364 
36540 40398 
37817 40011 
39218 39247 
38820 39504 
35743 40638 
36655 40360 
36512 40411 
36402 40445 
39828 38790 
36175 40531 
35605 40685 
37082 40257 
36255 40484 
36037 40578 
36944 40304 
37147 40216 
34876 40750 
34816 40793 
34967 40705 
